(set-info :smt-lib-version 2.6)
(set-logic QF_UFLRA)
(set-info :source |
MathSat group

|)
(set-info :category "random")
(set-info :status sat)
(declare-fun x0 () Real)
(declare-fun x1 () Real)
(declare-fun x2 () Real)
(declare-fun x3 () Real)
(declare-fun x4 () Real)
(declare-fun x5 () Real)
(declare-fun x6 () Real)
(declare-fun x7 () Real)
(declare-fun x8 () Real)
(declare-fun x9 () Real)
(declare-fun x10 () Real)
(declare-fun x11 () Real)
(declare-fun x12 () Real)
(declare-fun x13 () Real)
(declare-fun x14 () Real)
(declare-fun x15 () Real)
(declare-fun x16 () Real)
(declare-fun x17 () Real)
(declare-fun x18 () Real)
(declare-fun x19 () Real)
(declare-fun x20 () Real)
(declare-fun x21 () Real)
(declare-fun x22 () Real)
(declare-fun x23 () Real)
(declare-fun x24 () Real)
(declare-fun x25 () Real)
(declare-fun x26 () Real)
(declare-fun x27 () Real)
(declare-fun x28 () Real)
(declare-fun x29 () Real)
(declare-fun x30 () Real)
(declare-fun x31 () Real)
(declare-fun x32 () Real)
(declare-fun x33 () Real)
(declare-fun x34 () Real)
(declare-fun x35 () Real)
(declare-fun x36 () Real)
(declare-fun x37 () Real)
(declare-fun x38 () Real)
(declare-fun x39 () Real)
(declare-fun f0_1 (Real) Real)
(declare-fun f0_2 (Real Real) Real)
(declare-fun f0_3 (Real Real Real) Real)
(declare-fun f0_4 (Real Real Real Real) Real)
(declare-fun P0 () Bool)
(declare-fun P1 () Bool)
(declare-fun P2 () Bool)
(declare-fun P3 () Bool)
(declare-fun P4 () Bool)
(declare-fun P5 () Bool)
(declare-fun P6 () Bool)
(declare-fun P7 () Bool)
(declare-fun P8 () Bool)
(declare-fun P9 () Bool)
(declare-fun P10 () Bool)
(declare-fun P11 () Bool)
(declare-fun P12 () Bool)
(declare-fun P13 () Bool)
(declare-fun P14 () Bool)
(declare-fun P15 () Bool)
(declare-fun P16 () Bool)
(declare-fun P17 () Bool)
(declare-fun P18 () Bool)
(declare-fun P19 () Bool)
(declare-fun P20 () Bool)
(declare-fun P21 () Bool)
(declare-fun P22 () Bool)
(declare-fun P23 () Bool)
(declare-fun P24 () Bool)
(declare-fun P25 () Bool)
(declare-fun P26 () Bool)
(declare-fun P27 () Bool)
(declare-fun P28 () Bool)
(declare-fun P29 () Bool)
(declare-fun P30 () Bool)
(declare-fun P31 () Bool)
(declare-fun P32 () Bool)
(declare-fun P33 () Bool)
(declare-fun P34 () Bool)
(declare-fun P35 () Bool)
(declare-fun P36 () Bool)
(declare-fun P37 () Bool)
(declare-fun P38 () Bool)
(declare-fun P39 () Bool)
(assert (let ((?v_70 (< (- (- (* 24 x6) (* 48 x29)) (* 52 x16)) 33)) (?v_173 (< (+ (- (* 5 x21) (* 40 x5)) (* 37 x14)) 8)) (?v_39 (* 32 x32)) (?v_71 (< (+ (- (* 54 x23) (* 20 x9)) (* 12 x31)) 1))) (let ((?v_31 (< (- (+ (* 32 x9) (* 15 x34)) ?v_39) 7)) (?v_87 (<= (- (- (* 9 x15) (* 4 x35)) (* 52 x10)) 0)) (?v_38 (<= (- (+ (* 39 x37) (* 53 x10)) (* 4 x21)) 54)) (?v_149 (<= (- (+ (* 54 x37) (* 26 x24)) (* 50 x10)) 13)) (?v_155 (< (- (+ (* 35 x5) (* 12 x30)) (* 29 x39)) 48)) (?v_16 (< (- (- (* 54 x35) (* 53 x36)) (* 22 x32)) 24)) (?v_34 (distinct (- (- (* 33 x11) (* 8 x39)) (* 44 x11)) 53)) (?v_168 (distinct x39 (f0_2 x21 x21))) (?v_0 (= (f0_2 x19 x20) x18)) (?v_28 (= x38 x9)) (?v_82 (= (f0_2 x25 x1) (f0_1 x9))) (?v_61 (= (f0_1 x7) x31)) (?v_73 (f0_1 x1))) (let ((?v_43 (distinct x22 ?v_73)) (?v_32 (= x27 (f0_1 x8))) (?v_19 (f0_1 x10))) (let ((?v_146 (= ?v_19 (f0_1 x28))) (?v_30 (= x22 x26)) (?v_90 (distinct x1 (f0_1 x23))) (?v_13 (distinct (f0_2 x35 x2) (f0_2 x4 x23))) (?v_171 (distinct (f0_2 x26 x8) (f0_1 x33))) (?v_48 (distinct x3 (f0_1 x21))) (?v_41 (= (f0_2 x4 x15) x3)) (?v_193 (distinct (f0_2 x0 x38) (f0_1 x29))) (?v_58 (distinct x0 (f0_2 x24 x21))) (?v_18 (f0_1 x2))) (let ((?v_26 (distinct ?v_18 x35)) (?v_76 (= x9 x22)) (?v_9 (f0_1 x30))) (let ((?v_1 (distinct (f0_2 x14 x22) ?v_9)) (?v_167 (distinct x12 x22)) (?v_54 (f0_1 x15))) (let ((?v_59 (distinct ?v_54 (f0_2 x5 x24))) (?v_95 (= (f0_2 x4 x38) x6)) (?v_20 (distinct (f0_1 x17) ?v_9)) (?v_137 (distinct (f0_2 x1 x23) x18)) (?v_105 (distinct x8 x25)) (?v_113 (= (f0_1 x38) ?v_19)) (?v_56 (distinct (f0_2 x27 x17) ?v_18)) (?v_125 (distinct x19 (f0_2 x4 x30))) (?v_25 (= ?v_54 x20)) (?v_92 (distinct (f0_2 x4 x0) (f0_2 x15 x5))) (?v_3 (= (f0_1 x32) (f0_1 x35))) (?v_126 (= (f0_2 x6 x9) ?v_9)) (?v_145 (= (f0_2 x11 x36) (f0_2 x37 x17))) (?v_17 (distinct x33 x25)) (?v_88 (= (f0_2 x1 x10) (f0_1 x13))) (?v_7 (distinct x25 (f0_2 x5 x5))) (?v_10 (= x15 x1)) (?v_75 (distinct ?v_73 (f0_2 x13 x4))) (?v_4 (= (f0_1 x31) (f0_2 x8 x9))) (?v_141 (= (f0_2 x29 x21) (f0_2 x7 x0))) (?v_112 (not P7)) (?v_2 (not P21)) (?v_91 (not P23)) (?v_57 (not ?v_173)) (?v_55 (not P39))) (let ((?v_144 (not ?v_25)) (?v_106 (not P1)) (?v_50 (not ?v_10)) (?v_64 (not ?v_17)) (?v_11 (not ?v_168)) (?v_203 (not P25)) (?v_14 (not ?v_3)) (?v_5 (not ?v_43)) (?v_97 (not P24)) (?v_104 (not ?v_4)) (?v_24 (not P14)) (?v_150 (not ?v_7)) (?v_69 (not ?v_16)) (?v_35 (not ?v_113)) (?v_21 (not ?v_13)) (?v_27 (not ?v_48)) (?v_22 (not P4)) (?v_127 (not ?v_82)) (?v_78 (not ?v_145)) (?v_135 (not P31)) (?v_122 (not ?v_26)) (?v_37 (not P6)) (?v_36 (not P38)) (?v_89 (not P18)) (?v_45 (not ?v_20)) (?v_53 (not ?v_58)) (?v_124 (not ?v_38)) (?v_51 (not ?v_30)) (?v_81 (not P22)) (?v_33 (not ?v_31)) (?v_72 (not P29)) (?v_63 (not P15)) (?v_110 (not ?v_34)) (?v_108 (not P34)) (?v_169 (not ?v_171)) (?v_85 (not P16)) (?v_138 (not ?v_155)) (?v_147 (not ?v_1)) (?v_74 (not P27)) (?v_156 (not P0)) (?v_165 (not P20)) (?v_103 (not P33)) (?v_143 (not ?v_61)) (?v_154 (not ?v_149)) (?v_94 (not ?v_56)) (?v_118 (not P19)) (?v_190 (not ?v_141)) (?v_114 (not ?v_32)) (?v_129 (not ?v_71)) (?v_86 (not ?v_95)) (?v_128 (not ?v_28)) (?v_170 (not P11)) (?v_198 (not P28)) (?v_131 (not P36)) (?v_161 (not P26)) (?v_166 (not ?v_87)) (?v_111 (not P30)) (?v_175 (not ?v_75)) (?v_109 (not ?v_193)) (?v_187 (not P5)) (?v_157 (not P10)) (?v_140 (not P32)) (?v_132 (not P17)) (?v_196 (not ?v_59)) (?v_177 (not P13)) (?v_133 (not ?v_125)) (?v_136 (not ?v_126)) (?v_183 (not ?v_105)) (?v_151 (not ?v_88)) (?v_162 (not ?v_137)) (?v_199 (not P9)) (?v_201 (not ?v_41)) (?v_158 (not P35)) (?v_164 (not ?v_0)) (?v_174 (not P3)) (?v_163 (not ?v_70)) (?v_185 (not ?v_90)) (?v_172 (not P12)) (?v_186 (or P14 P30)) (?v_181 (not P8)) (?v_184 (not ?v_92)) (?v_192 (not P37)) (?v_194 (not P2)) (?v_202 (not ?v_146))) (let ((?v_204 (or ?v_172 P18)) (?v_12 (<= (+ (* 24 x27) (* 29 x34)) 29))) (let ((?v_65 (not ?v_12)) (?v_98 (<= (+ (* 24 x35) (* 28 x17) (* 47 x1)) 41))) (let ((?v_119 (not ?v_98)) (?v_123 (<= (- (- 0 x5) (* 53 x7)) 43)) (?v_101 (< (- (* 43 x35) (* 46 x36)) 27))) (let ((?v_179 (not ?v_101)) (?v_160 (not ?v_123)) (?v_23 (distinct (- (- (* (- 28) x33) (* 44 x7)) (* 37 x7)) 53)) (?v_6 (= (- (- (* (- 5) x27) (* 2 x26)) (* 36 x2)) 51))) (let ((?v_8 (not ?v_6)) (?v_47 (<= (+ (* (- 34) x5) (* 31 x34) (* 33 x28)) (- 51))) (?v_52 (distinct (- (- (* 31 x3) (* 15 x10)) (* 5 x9)) (- 1))) (?v_15 (<= (+ (* 28 x39) (* 41 x3) (* 17 x14)) (- 38))) (?v_102 (< (+ (- (* (- 3) x4) (* 14 x30)) (* 26 x31)) (- 38)))) (let ((?v_79 (not ?v_102)) (?v_60 (< (+ (* (- 7) x27) (* 8 x26) (* 56 x9)) (- 29)))) (let ((?v_142 (not ?v_60)) (?v_83 (<= (+ (* (- 56) x34) (* 4 x17) (* 6 x24)) (- 13)))) (let ((?v_115 (not ?v_83)) (?v_130 (= (+ (- (* 51 x9) (* 11 x11)) (* 38 x34)) (- 43))) (?v_66 (< (+ (* 52 x28) (* 28 x27) (* 20 x31)) (- 34))) (?v_80 (< (+ (- (* (- 29) x19) (* 13 x35)) (* 5 x31)) 50))) (let ((?v_40 (not ?v_80)) (?v_44 (<= (- (+ (* (- 57) x10) x7) (* 18 x37)) (- 21)))) (let ((?v_29 (not ?v_44)) (?v_46 (< (- (- (* 13 x33) (* 33 x27)) (* 6 x39)) (- 50))) (?v_42 (< (- (- (* 34 x8) (* 46 x39)) (* 33 x24)) (- 27))) (?v_120 (not ?v_23)) (?v_107 (< (- (- (* 6 x38) (* 11 x31)) (* 29 x15)) (- 37)))) (let ((?v_62 (not ?v_107)) (?v_68 (not ?v_15)) (?v_93 (<= (- (- (* (- 26) x0) (* 23 x17)) (* 22 x23)) (- 32))) (?v_49 (< (- (- (* (- 14) x22) (* 29 x3)) (* 31 x17)) (- 15))) (?v_77 (< (- (+ (* (- 43) x35) (* 32 x19)) (* 3 x28)) 9))) (let ((?v_195 (not ?v_77)) (?v_99 (<= (+ (- ?v_39 (* 42 x9)) (* 4 x29)) (- 4))) (?v_96 (not ?v_47)) (?v_67 (< (+ (* (- 22) x31) (* 13 x19) (* 9 x31)) 50))) (let ((?v_191 (not ?v_67)) (?v_121 (<= (- (- (* 37 x32) (* 12 x4)) (* 15 x4)) (- 53))) (?v_139 (<= (+ (- (* (- 55) x13) (* 36 x21)) (* 46 x34)) (- 33)))) (let ((?v_100 (not ?v_139)) (?v_159 (< (+ (* 5 x1) (* 24 x17)) (- 47))) (?v_117 (not ?v_52)) (?v_84 (not ?v_66)) (?v_116 (not ?v_46)) (?v_134 (not ?v_42)) (?v_200 (<= (- (- (* (- 9) x25) (* 25 x8)) (* 30 x38)) 15))) (let ((?v_153 (not ?v_200)) (?v_176 (< (+ (- (* (- 21) x33) (* 34 x11)) (* 13 x32)) (- 55))) (?v_152 (not ?v_93)) (?v_148 (not ?v_121)) (?v_178 (= (+ (* (- 6) x18) (* 16 x4) (* 9 x30)) 58))) (let ((?v_188 (not ?v_178)) (?v_182 (not ?v_159)) (?v_180 (not ?v_99)) (?v_189 (not ?v_176)) (?v_197 (not ?v_49)) (?v_205 (not ?v_130))) (and (and (and (and (and (and (and (and (and (and (and (and (and (and (and (and (and (and (and (and (and (and (and (and (and (and (and (and (and (and (and (and (and (and (and (and (and (and (and (and (and (and (and (and (and (and (and (and (and (and (and (and (and (and (and (and (and (and (and (and (and (and (and (and (and (and (and (and (and (and (and (and (and (and (and (and (and (and (and (and (and (and (and (and (and (and (and (and (and (and (and (and (and (and (and (and (and (and (and (and (and (and (and (and (and (and (and (and (and (and (and (and (and (and (and (and (and (and (and (and (and (and (and (and (and (and (and (and (and (and (and (and (and (and (and (and (and (and (and (and (and (and (and (and (and (and (and (and (and (and (and (and (and (and (and (and (and (and (and (and (and (and (and (and (and (and (and (and (and (and (and (and (and (and (and (and (and (and (and (and (and (and (and (and (and (and (and (and (and (and (and (and (and (and (and (and (and (and (and (and (and (and (and (and (and (and (and (and (and (and (and (and (and (and (and (and (and (and (and (and (and (and (and (and (and (and (and (and (and (and (and (and (and (and (and (and (and (and (and (and (and (and (and (and (and (and (and (and (and (and (and (and (and (and (and (and (and (and (and (and (and (and (and (and (and (and (and (and (and (and (and (and (and (and (and (and (and (and (and (and (and (and (and (and (and (and (and (and (and (and (and (and (and (and (and (and (and (and (and (and (and (and (and (and (and (and (and (and (and (and (and (and (and (and (and (and (and (and (and (and (and (and (and (and (and (and (and (and (and (and (and (and (and (and (and (and (and (and (and (and (and (and (and (and (and (and (and (and (and (and (and (and (and (and (and (and (and (and (and (and (and (and (and (and (and (and (and (and (and (and (and (and (and (and (and (and (and (and (and (and (and (and (and (and (and (and (and (and (and (and (and (and (and (and (and (and (and (and (and (and (and (and (and (and (and (and (and (and (and (and (and (and (and (and (and (and (and (and (and (and (and (and (and (and (and (and (and (and (and (and (and (and (and (and (and (and (and (and (and (and (and (and (and (and (and (and (and (and (and (and (and (and (and (and (and (and (and (and (and (and (and (and (and (and (and (and (and (and (and (and (and (and (and (and (and (and (and (and (and (or (or ?v_23 P20) ?v_8) (or (or ?v_90 P15) ?v_112)) (or (or P7 P6) ?v_2)) (or (or ?v_47 ?v_1) ?v_91)) (or (or ?v_57 ?v_56) ?v_55)) (or (or ?v_52 ?v_0) ?v_76)) (or (or ?v_144 ?v_61) ?v_4)) (or (or P32 ?v_0) ?v_106)) (or (or ?v_7 ?v_50) ?v_3)) (or (or ?v_1 ?v_64) ?v_65)) (or (or ?v_11 ?v_203) ?v_2)) (or (or ?v_14 P22) ?v_15)) (or (or ?v_79 ?v_5) ?v_31)) (or (or ?v_97 ?v_104) ?v_1)) (or (or P30 ?v_142) P12)) (or (or ?v_5 ?v_13) ?v_70)) (or (or ?v_6 ?v_24) ?v_150)) (or (or ?v_8 ?v_20) ?v_3)) (or (or ?v_69 ?v_35) P9)) (or (or ?v_115 ?v_10) ?v_11)) (or (or ?v_28 ?v_130) ?v_12)) (or (or ?v_66 ?v_21) ?v_14)) (or (or P20 ?v_27) ?v_71)) (or (or P32 ?v_30) ?v_15)) (or (or ?v_22 ?v_127) ?v_16)) (or (or ?v_78 P36) ?v_16)) (or (or ?v_40 ?v_17) ?v_119)) (or (or ?v_135 ?v_16) ?v_122)) (or (or ?v_37 ?v_36) ?v_29)) (or (or ?v_146 P3) ?v_89)) (or (or ?v_45 ?v_21) P18)) (or (or ?v_22 ?v_92) ?v_46)) (or (or P34 ?v_42) ?v_120)) (or (or ?v_24 P32) P27)) (or (or ?v_25 ?v_24) ?v_26)) (or (or ?v_27 P19) ?v_22)) (or (or P30 ?v_32) ?v_53)) (or (or P35 P19) ?v_28)) (or (or ?v_124 ?v_29) P35)) (or (or P28 ?v_51) ?v_62)) (or (or ?v_126 ?v_68) ?v_17)) (or (or ?v_93 ?v_81) ?v_33)) (or (or ?v_17 ?v_21) ?v_72)) (or (or P19 ?v_32) ?v_49)) (or (or ?v_63 ?v_41) ?v_17)) (or (or ?v_110 ?v_108) ?v_33)) (or (or ?v_169 P30) ?v_85)) (or (or ?v_34 ?v_35) ?v_138)) (or (or P20 P22) P19)) (or (or ?v_25 P23) ?v_147)) (or (or P29 ?v_36) ?v_195)) (or (or ?v_37 ?v_38) ?v_99)) (or (or ?v_40 ?v_11) ?v_41)) (or (or ?v_42 ?v_43) ?v_4)) (or (or ?v_44 ?v_45) ?v_4)) (or (or ?v_46 ?v_96) ?v_48)) (or (or ?v_49 P36) ?v_50)) (or (or ?v_74 ?v_191) ?v_40)) (or (or ?v_51 ?v_121) P25)) (or (or ?v_156 ?v_22) ?v_165)) (or (or ?v_52 ?v_88) P5)) (or (or P19 ?v_16) ?v_53)) (or (or ?v_12 P28) P26)) (or (or ?v_100 ?v_59) ?v_55)) (or (or ?v_56 ?v_57) ?v_33)) (or (or ?v_123 ?v_10) P15)) (or (or P0 P33) ?v_11)) (or (or ?v_47 ?v_103) ?v_32)) (or (or ?v_55 ?v_58) P24)) (or (or ?v_12 ?v_59) ?v_60)) (or (or ?v_143 ?v_62) ?v_154)) (or (or ?v_159 ?v_61) ?v_94)) (or (or ?v_63 ?v_64) ?v_65)) (or (or ?v_118 ?v_45) ?v_66)) (or (or P34 ?v_67) ?v_33)) (or (or P27 ?v_68) ?v_16)) (or (or ?v_117 ?v_69) ?v_48)) (or (or ?v_6 ?v_70) ?v_71)) (or (or P33 ?v_190) ?v_84)) (or (or ?v_87 P39) ?v_114)) (or (or ?v_72 ?v_129) ?v_46)) (or (or ?v_116 ?v_32) ?v_134)) (or (or ?v_48 ?v_27) P13)) (or (or ?v_75 P38) ?v_74)) (or (or ?v_75 P6) ?v_71)) (or (or ?v_44 ?v_86) ?v_59)) (or (or (not ?v_76) ?v_74) ?v_6)) (or (or ?v_128 ?v_77) ?v_47)) (or (or ?v_48 ?v_170) ?v_42)) (or (or P36 P21) P23)) (or (or ?v_25 ?v_37) P28)) (or (or P38 ?v_52) ?v_49)) (or (or ?v_198 ?v_78) ?v_51)) (or (or ?v_79 P10) ?v_125)) (or (or P10 ?v_80) ?v_81)) (or (or ?v_22 P9) ?v_28)) (or (or ?v_82 P24) ?v_66)) (or (or P39 P24) ?v_105)) (or (or ?v_137 ?v_1) ?v_25)) (or (or ?v_82 P37) ?v_131)) (or (or (not ?v_167) ?v_83) ?v_84)) (or (or ?v_85 P19) P38)) (or (or ?v_161 ?v_86) ?v_166)) (or (or P24 ?v_76) ?v_88)) (or (or ?v_55 P16) ?v_153)) (or (or ?v_8 P33) ?v_89)) (or (or ?v_111 ?v_90) ?v_10)) (or (or ?v_52 ?v_91) ?v_175)) (or (or ?v_68 ?v_36) ?v_92)) (or (or ?v_76 ?v_93) P16)) (or (or ?v_94 ?v_95) ?v_27)) (or (or ?v_96 ?v_97) ?v_92)) (or (or ?v_95 ?v_101) ?v_176)) (or (or ?v_98 ?v_99) ?v_5)) (or (or ?v_72 ?v_100) P0)) (or (or P33 P30) ?v_179)) (or (or ?v_109 ?v_58) ?v_102)) (or (or ?v_25 ?v_17) P22)) (or (or ?v_94 ?v_103) P23)) (or (or ?v_20 ?v_187) ?v_14)) (or (or ?v_104 ?v_57) ?v_13)) (or (or ?v_105 ?v_51) ?v_92)) (or (or ?v_106 ?v_107) P12)) (or (or ?v_108 ?v_106) P31)) (or (or ?v_0 ?v_157) ?v_91)) (or (or ?v_49 ?v_109) P19)) (or (or ?v_110 ?v_65) ?v_87)) (or (or ?v_40 P25) ?v_110)) (or (or P14 ?v_111) ?v_91)) (or (or ?v_110 P8) ?v_140)) (or (or P29 ?v_13) ?v_112)) (or (or ?v_47 ?v_59) ?v_21)) (or (or ?v_88 ?v_33) ?v_17)) (or (or ?v_113 P29) ?v_30)) (or (or P36 P24) ?v_132)) (or (or ?v_13 ?v_109) ?v_114)) (or (or ?v_115 ?v_152) P2)) (or (or ?v_103 ?v_109) ?v_116)) (or (or ?v_117 ?v_196) ?v_96)) (or (or ?v_10 ?v_58) P22)) (or (or ?v_2 ?v_75) ?v_32)) (or (or ?v_104 ?v_118) ?v_119)) (or (or ?v_102 ?v_2) ?v_88)) (or (or ?v_120 ?v_177) ?v_148)) (or (or ?v_108 ?v_122) ?v_37)) (or (or ?v_74 ?v_74) ?v_95)) (or (or ?v_14 ?v_123) ?v_60)) (or (or ?v_52 ?v_117) P38)) (or (or ?v_107 P28) ?v_105)) (or (or ?v_124 ?v_37) ?v_99)) (or (or ?v_67 ?v_7) P29)) (or (or ?v_133 ?v_20) ?v_8)) (or (or ?v_52 P19) ?v_96)) (or (or ?v_136 ?v_124) P8)) (or (or ?v_127 ?v_128) P18)) (or (or ?v_129 ?v_22) ?v_130)) (or (or ?v_58 ?v_3) ?v_183)) (or (or ?v_188 ?v_131) ?v_69)) (or (or ?v_151 ?v_52) ?v_132)) (or (or ?v_133 ?v_71) ?v_134)) (or (or ?v_135 ?v_136) P33)) (or (or ?v_162 ?v_99) P7)) (or (or ?v_5 ?v_138) ?v_139)) (or (or ?v_22 P21) ?v_69)) (or (or ?v_101 P27) ?v_38)) (or (or P39 ?v_140) ?v_141)) (or (or ?v_129 ?v_142) ?v_21)) (or (or ?v_103 ?v_85) P3)) (or (or ?v_32 ?v_79) ?v_0)) (or (or ?v_143 ?v_144) ?v_26)) (or (or ?v_145 ?v_137) ?v_146)) (or (or ?v_124 ?v_2) ?v_57)) (or (or ?v_147 P16) ?v_148)) (or (or ?v_136 P29) ?v_64)) (or (or ?v_199 ?v_201) P6)) (or (or ?v_149 ?v_99) P30)) (or (or P35 ?v_32) P20)) (or (or ?v_84 ?v_44) ?v_109)) (or (or P29 ?v_143) P36)) (or (or ?v_38 ?v_42) ?v_150)) (or (or ?v_160 P36) P7)) (or (or ?v_31 ?v_40) P33)) (or (or ?v_60 ?v_137) ?v_78)) (or (or ?v_125 P3) P37)) (or (or ?v_22 ?v_81) ?v_151)) (or (or ?v_143 ?v_152) ?v_30)) (or (or ?v_158 ?v_153) P10)) (or (or ?v_68 P32) ?v_164)) (or (or ?v_124 ?v_151) ?v_76)) (or (or ?v_125 ?v_174) ?v_163)) (or (or P6 ?v_154) ?v_61)) (or (or ?v_85 ?v_130) ?v_155)) (or (or ?v_3 ?v_37) ?v_15)) (or (or ?v_0 ?v_59) ?v_156)) (or (or ?v_128 ?v_99) ?v_55)) (or (or P11 P31) ?v_10)) (or (or ?v_153 ?v_81) ?v_185)) (or (or ?v_83 ?v_102) P38)) (or (or P23 ?v_76) ?v_59)) (or (or ?v_95 ?v_15) P8)) (or (or ?v_42 ?v_11) ?v_29)) (or (or ?v_130 ?v_101) ?v_88)) (or (or ?v_157 ?v_141) ?v_6)) (or (or ?v_133 ?v_36) ?v_154)) (or (or ?v_11 ?v_158) ?v_48)) (or (or ?v_126 ?v_33) ?v_123)) (or (or ?v_140 ?v_127) P3)) (or (or ?v_182 P12) P19)) (or (or ?v_160 ?v_14) ?v_77)) (or (or P10 ?v_53) P36)) (or (or ?v_161 P31) ?v_138)) (or (or ?v_41 ?v_126) ?v_16)) (or (or ?v_35 ?v_158) ?v_27)) (or (or ?v_172 ?v_3) ?v_161)) (or (or ?v_21 ?v_89) ?v_77)) (or ?v_186 ?v_101)) (or (or ?v_47 ?v_149) ?v_87)) (or (or ?v_46 ?v_84) P4)) (or (or ?v_162 ?v_151) ?v_163)) (or (or ?v_83 ?v_78) ?v_124)) (or (or ?v_6 ?v_159) ?v_115)) (or (or P7 ?v_164) ?v_51)) (or (or P38 ?v_98) P17)) (or (or ?v_117 ?v_165) ?v_166)) (or (or ?v_102 ?v_145) ?v_167)) (or (or ?v_163 ?v_34) ?v_6)) (or (or P15 ?v_10) ?v_168)) (or (or ?v_100 ?v_52) ?v_60)) (or (or ?v_105 ?v_68) ?v_150)) (or (or P32 ?v_61) P10)) (or (or ?v_111 P20) ?v_74)) (or (or ?v_164 P20) P5)) (or (or ?v_22 ?v_169) P5)) (or (or ?v_145 ?v_170) ?v_85)) (or (or ?v_56 ?v_79) ?v_89)) (or (or P33 ?v_65) P27)) (or (or ?v_108 ?v_119) ?v_1)) (or (or ?v_85 ?v_82) ?v_171)) (or (or ?v_43 ?v_163) ?v_98)) (or (or ?v_113 P36) ?v_93)) (or (or ?v_172 ?v_138) ?v_71)) (or (or P19 ?v_74) P8)) (or (or ?v_88 ?v_158) ?v_165)) (or (or ?v_181 ?v_173) ?v_41)) (or (or ?v_35 ?v_174) ?v_25)) (or (or P15 ?v_50) ?v_184)) (or (or ?v_175 ?v_13) ?v_163)) (or (or P8 P13) ?v_63)) (or (or P5 ?v_104) ?v_106)) (or (or ?v_116 P39) ?v_99)) (or (or ?v_49 P39) ?v_176)) (or (or P28 ?v_38) ?v_5)) (or (or ?v_104 ?v_174) P32)) (or (or ?v_70 ?v_147) ?v_112)) (or (or ?v_94 P16) ?v_124)) (or (or ?v_31 ?v_14) ?v_28)) (or (or ?v_180 ?v_29) ?v_177)) (or (or P15 ?v_14) ?v_99)) (or (or P29 ?v_43) ?v_49)) (or (or ?v_41 ?v_91) P29)) (or (or ?v_51 ?v_37) P3)) (or (or ?v_165 P34) ?v_133)) (or (or ?v_126 ?v_164) ?v_58)) (or (or ?v_101 ?v_165) ?v_74)) (or (or P19 ?v_144) ?v_178)) (or (or ?v_59 P21) ?v_25)) (or (or P27 ?v_121) ?v_15)) (or (or ?v_168 ?v_87) ?v_149)) (or (or ?v_0 P19) ?v_41)) (or (or ?v_154 P18) ?v_52)) (or (or ?v_56 ?v_142) ?v_21)) (or (or ?v_65 ?v_12) ?v_44)) (or (or ?v_171 ?v_112) ?v_165)) (or (or ?v_98 ?v_89) ?v_157)) (or (or ?v_93 ?v_117) ?v_27)) (or (or P31 ?v_155) ?v_179)) (or (or ?v_94 ?v_171) ?v_2)) (or (or ?v_68 ?v_69) ?v_65)) (or (or ?v_144 ?v_117) ?v_160)) (or (or ?v_125 ?v_13) ?v_94)) (or (or P28 ?v_37) ?v_180)) (or (or ?v_66 ?v_34) ?v_189)) (or (or P33 ?v_192) ?v_173)) (or (or ?v_90 ?v_56) ?v_28)) (or (or P30 ?v_71) ?v_151)) (or (or ?v_133 ?v_171) ?v_163)) (or (or P36 ?v_127) ?v_113)) (or (or ?v_169 ?v_59) ?v_65)) (or (or ?v_130 ?v_106) ?v_5)) (or (or ?v_144 ?v_171) ?v_139)) (or (or ?v_71 ?v_143) ?v_171)) (or (or ?v_141 P1) ?v_89)) (or (or ?v_167 ?v_181) ?v_22)) (or (or ?v_182 ?v_179) ?v_162)) (or (or ?v_148 P6) ?v_142)) (or (or ?v_115 ?v_138) ?v_140)) (or (or ?v_11 ?v_120) ?v_112)) (or (or ?v_40 ?v_7) ?v_142)) (or (or ?v_142 ?v_41) ?v_98)) (or (or ?v_108 ?v_53) ?v_17)) (or (or ?v_178 ?v_67) ?v_114)) (or (or ?v_177 ?v_22) ?v_85)) (or (or ?v_183 ?v_171) P39)) (or (or ?v_184 ?v_146) ?v_174)) (or (or ?v_38 ?v_85) P37)) (or (or ?v_44 ?v_96) ?v_131)) (or (or ?v_48 ?v_182) ?v_118)) (or (or ?v_13 ?v_116) ?v_169)) (or (or ?v_8 ?v_66) ?v_157)) (or (or ?v_24 ?v_140) ?v_13)) (or (or ?v_60 ?v_42) ?v_177)) (or (or ?v_104 ?v_95) ?v_100)) (or (or P10 ?v_176) P29)) (or (or ?v_29 P5) ?v_57)) (or (or ?v_59 ?v_165) ?v_1)) (or (or ?v_23 ?v_70) ?v_49)) (or (or ?v_178 ?v_4) ?v_103)) (or (or ?v_185 P34) ?v_138)) (or (or ?v_175 P37) ?v_134)) (or (or ?v_146 ?v_167) ?v_42)) (or (or ?v_111 P14) ?v_42)) (or ?v_186 ?v_27)) (or (or P19 ?v_187) ?v_93)) (or (or ?v_23 ?v_17) ?v_37)) (or (or ?v_64 ?v_130) ?v_15)) (or (or P31 P16) ?v_188)) (or (or ?v_153 ?v_7) ?v_51)) (or (or ?v_119 ?v_90) ?v_26)) (or (or ?v_16 ?v_185) ?v_137)) (or (or ?v_127 ?v_119) P14)) (or (or ?v_189 ?v_48) ?v_37)) (or (or ?v_63 ?v_190) P6)) (or (or ?v_43 ?v_22) ?v_148)) (or (or P30 ?v_123) ?v_132)) (or (or ?v_108 ?v_32) ?v_119)) (or (or P37 ?v_171) ?v_191)) (or (or P23 ?v_194) ?v_101)) (or (or ?v_1 ?v_166) ?v_192)) (or (or ?v_190 P9) ?v_177)) (or (or ?v_21 ?v_14) ?v_85)) (or (or ?v_55 ?v_181) ?v_134)) (or (or ?v_51 ?v_2) ?v_60)) (or (or ?v_5 ?v_172) ?v_121)) (or (or ?v_193 ?v_46) ?v_146)) (or (or ?v_115 ?v_57) ?v_161)) (or (or ?v_150 P20) ?v_143)) (or (or P29 ?v_125) ?v_134)) (or (or ?v_139 ?v_64) ?v_103)) (or (or ?v_66 ?v_177) ?v_106)) (or (or ?v_6 ?v_23) ?v_191)) (or (or P13 ?v_93) ?v_170)) (or (or ?v_174 ?v_113) ?v_98)) (or (or ?v_106 ?v_96) P18)) (or (or ?v_74 ?v_188) P34)) (or (or ?v_177 ?v_31) ?v_80)) (or (or P15 ?v_60) ?v_106)) (or (or ?v_94 P29) P35)) (or (or ?v_108 ?v_202) ?v_163)) (or (or ?v_165 P30) P37)) (or (or ?v_131 ?v_10) ?v_194)) (or (or ?v_55 ?v_147) ?v_172)) (or (or ?v_30 ?v_136) ?v_49)) (or (or ?v_115 P5) P10)) (or (or ?v_94 ?v_66) ?v_38)) (or (or ?v_151 ?v_61) ?v_124)) (or (or ?v_124 ?v_38) P31)) (or (or P5 ?v_65) ?v_195)) (or (or P10 P35) ?v_41)) (or (or ?v_196 ?v_146) ?v_134)) (or (or ?v_82 ?v_71) P8)) (or (or ?v_101 ?v_140) P25)) (or (or ?v_17 ?v_52) ?v_24)) (or (or ?v_197 ?v_75) ?v_173)) (or (or ?v_169 ?v_33) ?v_4)) (or (or ?v_23 ?v_1) ?v_140)) (or (or ?v_63 ?v_163) ?v_40)) (or (or ?v_58 ?v_105) ?v_170)) (or (or P12 ?v_138) ?v_15)) (or (or P29 ?v_159) ?v_23)) (or (or ?v_16 ?v_197) ?v_5)) (or (or ?v_144 ?v_4) ?v_175)) (or (or ?v_70 ?v_72) ?v_173)) (or (or ?v_56 P15) ?v_50)) (or ?v_204 P13)) (or (or ?v_4 ?v_130) ?v_146)) (or (or P23 ?v_131) ?v_90)) (or (or P32 ?v_134) ?v_4)) (or (or ?v_161 ?v_13) ?v_166)) (or (or ?v_70 ?v_53) ?v_48)) (or (or ?v_77 ?v_153) ?v_55)) (or (or ?v_100 ?v_198) P20)) (or (or P21 P7) P22)) (or (or ?v_55 ?v_47) ?v_105)) (or (or P39 ?v_45) ?v_71)) (or (or ?v_55 ?v_153) P10)) (or (or ?v_21 ?v_165) P0)) (or (or ?v_141 ?v_145) ?v_151)) (or (or ?v_35 ?v_191) ?v_92)) (or (or P38 ?v_50) ?v_162)) (or (or ?v_26 P18) ?v_1)) (or (or ?v_63 ?v_24) ?v_97)) (or (or ?v_184 P22) ?v_149)) (or (or ?v_45 ?v_7) ?v_133)) (or (or P11 P6) P14)) (or (or P32 ?v_8) ?v_95)) (or (or ?v_138 ?v_147) P35)) (or (or ?v_77 ?v_114) ?v_14)) (or (or ?v_121 P34) ?v_138)) (or (or ?v_174 ?v_42) P37)) (or (or ?v_199 ?v_165) ?v_146)) (or (or ?v_98 ?v_192) P18)) (or (or ?v_191 ?v_22) P18)) (or (or P19 ?v_182) ?v_13)) (or (or P18 ?v_35) ?v_160)) (or (or ?v_116 ?v_167) ?v_142)) (or (or P2 ?v_8) ?v_108)) (or (or P6 ?v_200) ?v_13)) (or (or ?v_42 ?v_74) ?v_171)) (or (or ?v_165 P8) ?v_69)) (or (or ?v_126 ?v_167) ?v_24)) (or (or ?v_201 P4) ?v_90)) (or (or ?v_79 ?v_138) ?v_205)) (or (or ?v_157 P8) ?v_152)) (or (or ?v_111 P24) ?v_182)) (or (or ?v_165 ?v_194) ?v_99)) (or (or ?v_80 ?v_27) ?v_62)) (or (or ?v_5 ?v_93) ?v_57)) (or (or ?v_2 ?v_66) ?v_202)) (or (or ?v_130 ?v_116) ?v_125)) (or (or ?v_183 ?v_23) ?v_94)) (or (or ?v_151 P1) ?v_158)) (or (or ?v_23 P17) ?v_157)) (or (or ?v_150 P31) ?v_95)) (or (or ?v_170 P34) ?v_90)) (or (or ?v_87 ?v_198) ?v_123)) (or (or ?v_139 ?v_68) ?v_116)) (or (or ?v_84 P15) ?v_203)) (or (or ?v_25 ?v_28) ?v_140)) (or (or ?v_89 ?v_69) ?v_101)) (or (or ?v_142 ?v_72) ?v_21)) (or (or ?v_62 ?v_182) ?v_4)) (or (or ?v_115 ?v_160) ?v_56)) (or (or ?v_68 ?v_180) ?v_163)) (or (or ?v_50 ?v_170) ?v_162)) (or (or ?v_179 ?v_10) ?v_130)) (or ?v_204 ?v_108)) (or (or ?v_116 P37) ?v_38)) (or (or ?v_80 ?v_78) ?v_142)) (or (or ?v_178 P15) ?v_100)) (or (or ?v_104 ?v_88) ?v_33)) (or (or ?v_115 ?v_201) ?v_48)) (or (or ?v_185 ?v_66) ?v_116)) (or (or P34 ?v_198) ?v_31)) (or (or ?v_134 ?v_47) ?v_100)) (or (or ?v_91 ?v_190) ?v_84)) (or (or P24 ?v_155) P3)) (or (or P29 ?v_100) ?v_205)) (or (or ?v_110 ?v_102) ?v_3)) (or (or ?v_170 ?v_25) ?v_4)) (or (or ?v_183 ?v_0) ?v_174)) (or (or P19 ?v_147) P6)) (or (or ?v_95 ?v_89) ?v_132)) (or (or ?v_22 ?v_65) ?v_184)) (or (or P27 P7) ?v_196)) (or (or ?v_88 ?v_190) ?v_158)) (or (or P39 ?v_136) ?v_124)) (or (or ?v_165 ?v_187) ?v_99)) (or (or P25 P22) P15)) (or (or ?v_177 ?v_8) ?v_180)) (or (or ?v_173 ?v_40) ?v_89)) (or (or P15 ?v_6) ?v_126)) (or (or ?v_79 ?v_182) P27)) (or (or ?v_66 ?v_165) ?v_62)) (or (or ?v_86 ?v_154) ?v_4)) (or (or ?v_169 ?v_108) ?v_175)) (or (or P23 ?v_203) ?v_92)) (or (or ?v_3 ?v_75) ?v_177)) (or (or P8 ?v_16) P38)) (or (or ?v_34 ?v_14) ?v_31)) (or (or ?v_105 ?v_135) ?v_6)))))))))))))))))))))))))))
(check-sat)
(exit)
